nApps = 217
nRes = 9
nActs = 436
nNetworks = 6

assignmentToResources = [1,1,2,3,1,2,2,3,3,2,1,3,3,3,2,2,2,2,2,3,1,3,2,2,2,2,2,2,1,2,2,2,1,1,2,2,2,1,2,3,2,2,2,3,2,3,1,2,3,2,1,3,1,2,2,1,3,3,2,2,2,3,2,1,1,2,3,3,3,1,2,1,1,2,3,1,1,3,2,2,3,3,2,2,1,2,2,2,2,1,1,2,2,1,1,1,2,2,3,2,4,4,4,4,4,4,4,4,4,5,5,5,6,6,6,4,4,4,4,5,6,6,6,6,6,6,6,6,6,6,5,5,5,5,5,5,5,6,4,4,5,5,5,5,5,5,5,5,4,5,5,5,5,5,4,4,4,5,5,5,5,4,4,5,6,5,5,5,6,6,6,6,5,6,6,6,6,6,4,4,4,4,5,5,5,6,4,4,4,4,4,6,5,5,5,5,4,6,6,5,5,6,5,4,5,5,6,6,6,6,4,4,4,4,4,4,4,4,5,5,6,4,4,4,6,6,5,5,5,6,6,6,5,5,5,5,5,5,4,4,4,4,5,5,5,5,5,7,6,8,4,9,6,7,5,7,5,9,6,8,4,8,5,7,4,9,5,7,4,8,4,9,5,9,5,7,5,7,4,9,6,7,4,9,6,7,5,9,4,8,9,8,9,8,9,8,8,8,8,7,7,7,8,8,8,9,8,9,8,9,7,8,8,8,8,8,8,8,8,8,7,7,9,9,7,9,7,7,8,8,7,7,7,7,9,7,9,7,9,7,7,9,7,7,8,8,9,7,9,9,7,8,8,7,8,9,9,9,8,8,8,8,9,7,8,8,7,8,8,9,8,8,9,7,7,8,9,8,8,9,8,8,9,7,9,7,8,7,7,7,7,7,9,8,7,7,8,7,8,8,8,8,9,8,8,8,8,8,7,7,8,8,8,8,8,8,9,7,9,7,8,7,9,9,7,9,9,9,8,8,9,9,9,7,9,9];

processingTimes = [72,136,72,104,96,104,136,56,104,80,120,40,128,64,144,64,112,136,136,144,128,40,168,136,128,112,136,128,88,136,112,56,168,104,136,128,136,144,64,88,136,96,152,104,136,128,128,112,96,128,104,160,112,48,120,72,128,136,120,80,56,136,128,104,72,104,104,144,128,128,136,80,120,120,120,128,120,96,120,168,96,112,48,120,120,112,120,72,104,128,104,104,136,56,128,128,88,56,112,120,5,4,4,500,3,3,4,4,4,3,5,4,5,4,4,7,100,100,100,3,3,500,3,5,500,11,8,4,3,8,3,4,500,4,3,3,3,4,500,3,16,3,4,4,4,4,4,4,3,5,4,3,4,5,4,500,500,5,3,3,500,4,4,500,4,3,4,3,500,4,4,4,3,4,4,4,500,8,3,500,3,500,5,3,3,4,3,3,3,3,500,3,500,4,4,3,500,4,3,3,4,3,500,4,3,3,500,3,4,4,4,4,4,4,4,4,4,4,3,4,500,4,4,3,3,3,3,3,4,500,100,100,3,4,4,500,3,500,3,8,4,500,3,3,3,500,500,500,500,500,500,500,500,500,500,500,500,500,500,500,500,500,500,500,500,500,3,3,4,4,4,4,3,3,3,3,3,3,3,3,4,4,4,4,3,3,4,4,4,4,5,4,4,500,3,3,4,4,4,3,5,4,5,4,4,7,100,100,100,3,3,500,3,5,500,11,8,4,3,8,3,4,500,4,3,3,3,4,500,3,16,3,4,4,4,4,4,4,3,5,4,3,4,5,4,500,500,5,3,3,500,4,4,500,4,3,4,3,500,4,4,4,3,4,4,4,500,8,3,500,3,500,5,3,3,4,3,3,3,3,500,3,500,4,4,3,500,4,3,3,4,3,500,4,3,3,500,3,4,4,4,4,4,4,4,4,4,4,3,4,500,4,4,3,3,3,3,3,4,500,100,100,3,4,4,500,3,500,3,8,4,500,3,3,3,500];

periods = [10000,100000,10000,10000,1000,2000,10000,20000,5000,20000,10000,50000,10000,1000,100000,50000,20000,20000,100000,10000,10000,10000,100000,100000,100000,10000,20000,20000,100000,20000,10000,10000,10000,10000,100000,20000,100000,10000,20000,10000,20000,100000,20000,100000,20000,20000,100000,20000,10000,100000,20000,10000,5000,10000,20000,10000,10000,10000,100000,100000,10000,20000,20000,100000,100000,100000,20000,20000,20000,20000,20000,20000,20000,10000,20000,20000,10000,10000,100000,10000,50000,1000,20000,100000,10000,100000,100000,100000,20000,100000,100000,10000,20000,10000,20000,10000,20000,100000,10000,100000,10000,10000,10000,10000,10000,10000,100000,100000,100000,10000,10000,10000,10000,10000,10000,1000,1000,1000,1000,2000,5000,5000,5000,5000,50000,50000,50000,10000,10000,10000,100000,20000,20000,20000,100000,100000,100000,10000,10000,10000,100000,100000,100000,10000,10000,20000,20000,20000,100000,20000,10000,10000,10000,10000,10000,10000,10000,100000,20000,100000,100000,10000,10000,20000,10000,20000,100000,100000,100000,100000,100000,100000,20000,20000,20000,20000,20000,20000,100000,100000,100000,100000,20000,20000,20000,10000,20000,20000,20000,20000,20000,10000,10000,10000,20000,20000,10000,10000,10000,100000,100000,20000,20000,100000,100000,100000,20000,20000,20000,20000,20000,20000,20000,20000,20000,20000,20000,20000,10000,10000,20000,20000,20000,20000,10000,10000,100000,100000,10000,50000,1000,1000,20000,20000,100000,100000,100000,100000,100000,100000,10000,10000,20000,20000,100000,100000,10000,10000,10000,10000,10000,10000,10000,10000,10000,10000,10000,10000,10000,10000,10000,10000,10000,10000,10000,10000,20000,20000,20000,20000,20000,20000,20000,20000,20000,20000,10000,10000,10000,10000,10000,10000,10000,10000,10000,10000,10000,10000,20000,20000,10000,10000,10000,10000,10000,10000,100000,100000,100000,10000,10000,10000,10000,10000,10000,1000,1000,1000,1000,2000,5000,5000,5000,5000,50000,50000,50000,10000,10000,10000,100000,20000,20000,20000,100000,100000,100000,10000,10000,10000,100000,100000,100000,10000,10000,20000,20000,20000,100000,20000,10000,10000,10000,10000,10000,10000,10000,100000,20000,100000,100000,10000,10000,20000,10000,20000,100000,100000,100000,100000,100000,100000,20000,20000,20000,20000,20000,20000,100000,100000,100000,100000,20000,20000,20000,10000,20000,20000,20000,20000,20000,10000,10000,10000,20000,20000,10000,10000,10000,100000,100000,20000,20000,100000,100000,100000,20000,20000,20000,20000,20000,20000,20000,20000,20000,20000,20000,20000,10000,10000,20000,20000,20000,20000,10000,10000,100000,100000,10000,50000,1000,1000,20000,20000,100000,100000,100000,100000,100000,100000,10000,10000,20000,20000,100000,100000];

assignmentToClusters = [1,2,1,3,4,5,1,6,7,8,1,9,10,11,12,13,14,15,16,1,17,1,18,19,20,21,22,23,24,25,26,1,17,27,19,28,19,29,30,31,32,33,8,34,35,36,37,8,1,19,38,26,39,1,40,17,41,17,42,43,44,45,46,47,48,19,8,49,8,8,50,51,52,53,54,8,55,1,19,17,56,57,58,59,60,61,62,63,64,65,65,66,38,67,68,1,69,70,17,71,72,73,74,75,76,77,78,79,80,81,82,83,84,85,86,87,88,89,90,91,92,93,94,95,96,97,98,99,100,101,102,103,104,105,106,107,108,109,110,111,112,113,114,115,116,117,118,119,120,121,122,123,124,125,126,127,128,129,130,131,132,133,134,135,136,137,138,139,140,141,142,143,144,145,146,147,148,149,150,151,152,153,154,155,156,157,158,159,160,161,162,163,164,165,166,167,168,169,170,171,172,173,174,175,176,177,178,179,180,181,182,183,184,185,186,187,188,189,190,191,192,193,194,195,196,197,198,199,200,201,202,203,204,205,206,207,208,209,210,211,212,213,214,215,216,217,1,1,1,1,1,1,1,1,1,1,1,1,1,1,1,1,1,1,1,1,8,8,8,8,8,8,8,8,8,8,17,17,17,17,17,17,17,17,17,17,26,26,38,38,72,73,74,75,76,77,78,79,80,81,82,83,84,85,86,87,88,89,90,91,92,93,94,95,96,97,98,99,100,101,102,103,104,105,106,107,108,109,110,111,112,113,114,115,116,117,118,119,120,121,122,123,124,125,126,127,128,129,130,131,132,133,134,135,136,137,138,139,140,141,142,143,144,145,146,147,148,149,150,151,152,153,154,155,156,157,158,159,160,161,162,163,164,165,166,167,168,169,170,171,172,173,174,175,176,177,178,179,180,181,182,183,184,185,186,187,188,189,190,191,192,193,194,195,196,197,198,199,200,201,202,203,204,205,206,207,208,209,210,211,212,213,214,215,216,217];

precedenceAdjList = [[247],[],[],[],[],[],[249],[],[],[],[253,255],[],[],[],[],[],[],[],[],[],[277],[257],[],[36,49],[],[],[],[],[],[],[],[259],[285],[],[23],[],[],[],[],[],[],[],[],[],[],[],[],[269],[265],[],[],[287],[],[261],[],[281],[],[283],[],[],[],[],[],[],[],[34,78],[68],[],[271,273],[267],[],[],[],[],[],[275],[],[48,251],[],[],[],[],[],[],[],[],[],[],[],[],[89],[],[289],[],[],[263],[],[],[279],[],[],[],[],[],[],[],[],[],[],[],[],[],[],[],[],[],[],[],[],[],[],[],[],[],[],[],[],[],[],[],[],[],[],[],[],[],[],[],[],[],[],[],[],[],[],[],[],[],[],[],[],[],[],[],[],[],[],[],[],[],[],[],[],[],[],[],[],[],[],[],[],[],[],[],[],[],[],[],[],[],[],[],[],[],[],[],[],[],[],[],[],[],[],[],[],[],[],[],[],[],[],[],[],[],[],[],[],[],[],[],[],[],[],[],[],[],[],[],[],[],[],[],[],[],[],[],[],[],[],[],[],[],[],[],[],[],[],[],[],[],[],[],[],[],[],[],[6],[246],[77],[248],[10],[250],[21],[252],[53],[254],[31],[256],[19],[258],[95],[260],[2],[262],[10],[264],[9],[266],[69],[268],[75],[270],[47],[272],[42],[274],[79],[276],[20],[278],[98],[280],[55],[282],[57],[284],[30],[286],[50],[288],[100],[101],[102],[103],[104],[105],[106],[107],[108],[109],[110],[111],[112],[113],[114],[115],[116],[117],[118],[119],[120],[121],[122],[123],[124],[125],[126],[127],[128],[129],[130],[131],[132],[133],[134],[135],[136],[137],[138],[139],[140],[141],[142],[143],[144],[145],[146],[147],[148],[149],[150],[151],[152],[153],[154],[155],[156],[157],[158],[159],[160],[161],[162],[163],[164],[165],[166],[167],[168],[169],[170],[171],[172],[173],[174],[175],[176],[177],[178],[179],[180],[181],[182],[183],[184],[185],[186],[187],[188],[189],[190],[191],[192],[193],[194],[195],[196],[197],[198],[199],[200],[201],[202],[203],[204],[205],[206],[207],[208],[209],[210],[211],[212],[213],[214],[215],[216],[217],[218],[219],[220],[221],[222],[223],[224],[225],[226],[227],[228],[229],[230],[231],[232],[233],[234],[235],[236],[237],[238],[239],[240],[241],[242],[243],[244],[245]];